c read Graph
c width = 329
c time = 1016 ms
c width = 26
c time = 1509 ms
c width = 25
c time = 1685 ms
c width = 24
c time = 1717 ms
c width = 24
c time = 3684 ms
s td 272 25 342
b 1 1 2 20
b 2 2 3 20 21
b 3 17 18 37 38
b 4 3 20 21 39
b 5 17 37 38 57
b 6 286 305 306 325
b 7 304 322 323 341
b 8 286 306 325 326
b 9 304 322 340 341
b 10 3 4 5 23
b 11 3 5 22 23 40 58
b 12 5 22 23 40 42 58 60
b 13 5 23 40 42 58 60 78
b 14 5 23 42 58 60 78 96
b 15 5 23 25 42 43 60 78 96
b 16 5 25 42 43 60 62 78 80 96
b 17 5 25 43 60 62 78 80 96 98
b 18 5 25 43 62 78 80 96 98 116
b 19 5 25 43 45 62 63 80 96 98 116
b 20 5 25 45 62 63 80 83 96 98 102 116 118 120 138
b 21 5 25 45 63 65 83 96 98 102 116 118 120 138
b 22 5 13 25 33 45 51 65 69 83 87 96 98 102 105 116 118 120 122 123 138
b 23 13 33 51 69 87 96 98 102 105 116 118 120 122 123 138 140
b 24 102 120 121 122 140
b 25 13 33 51 69 87 96 98 105 116 118 120 122 123 138 140 160 179 199 219 239 257 275 295 315 333
b 26 13 33 51 69 87 105 122 123 140 143 160 163 164 179 184 199 203 219 221 239 257 275 295 315 333
b 27 122 123 140 143 160 163 164 179 181 184 199 203 219 221 239
b 28 122 123 140 143 160 161 163 179 181 199
b 29 122 123 140 142 143 160 161
b 30 122 140 141 142 160
b 31 161 179 180 181 199
b 32 143 161 162 163 181
b 33 163 164 181 184 199 201 203 219 221 239
b 34 163 164 181 183 184 201 203 221
b 35 163 181 182 183 201
b 36 183 201 202 203 221
b 37 201 219 220 221 239
b 38 181 199 200 201 219
b 39 96 98 116 118 120 138 140 160 172 179 192 197 199 212 214 215 219 232 239 257 275 295 315 333
b 40 96 98 116 118 120 138 140 160 172 179 192 196 197 212 214 215 232
b 41 96 98 116 118 120 138 140 156 160 172 176 179 192 196 197 212 214 232
b 42 120 138 140 156 158 160 176 179 196 197
b 43 140 158 160 176 178 179 196 197
b 44 140 158 159 160 178
b 45 158 176 177 178 196
b 46 138 156 157 158 176
b 47 120 138 139 140 158
b 48 96 98 116 118 138 156 172 174 176 192 196 212 214 232
b 49 96 98 116 118 136 138 156 172 174 192
b 50 118 136 137 138 156
b 51 98 116 117 118 136
b 52 96 116 136 154 156 172 174 192
b 53 154 172 173 174 192
b 54 96 116 134 136 154 172
b 55 96 115 116 134
b 56 134 153 154 172
b 57 116 134 135 136 154
b 58 136 154 155 156 174
b 59 156 174 176 192 194 196 212 214 232
b 60 156 174 175 176 194
b 61 174 192 193 194 212
b 62 176 194 195 196 214
b 63 194 212 213 214 232
b 64 172 179 192 197 199 212 214 215 219 232 235 239 255 257 275 295 315 333
b 65 179 197 199 215 217 219 235 239 255 257 275
b 66 197 215 216 217 235
b 67 179 197 198 199 217
b 68 199 217 219 235 237 239 255 257 275
b 69 237 255 256 257 275
b 70 217 235 236 237 255
b 71 199 217 218 219 237
b 72 219 237 238 239 257
b 73 172 192 212 214 215 232 235 255 273 275 291 295 311 315 329 333
b 74 172 192 212 214 215 232 235 251 255 271 273 291 311 329
b 75 214 215 232 235 251 253 255 271 273 291
b 76 253 271 272 273 291
b 77 235 253 254 255 273
b 78 214 215 232 233 235 251 253 271
b 79 215 233 234 235 253
b 80 233 251 252 253 271
b 81 172 192 212 230 232 248 251 271 291 311 329
b 82 212 230 232 248 250 251 271 291 311 329
b 83 230 248 250 251 271 291 309 311 329
b 84 230 248 250 251 271 289 291 309 329
b 85 230 248 250 251 269 271 289 309 329
b 86 230 248 250 268 269 289 309 329
b 87 248 268 269 289 309 327 329
b 88 248 268 269 289 307 309 327
b 89 289 307 308 309 327
b 90 248 268 269 287 289 307 327
b 91 248 268 286 287 307 327
b 92 248 267 268 286
b 93 286 287 307 326 327
b 94 286 287 306 307 326
b 95 269 287 288 289 307
b 96 309 327 328 329
b 97 230 248 249 250 268
b 98 251 269 270 271 289
b 99 271 289 290 291 309
b 100 291 309 310 311 329
b 101 212 230 231 232 250
b 102 172 192 210 212 230 248
b 103 192 210 211 212 230
b 104 210 229 230 248
b 105 172 191 192 210
b 106 255 273 275 291 293 295 311 315 329 333
b 107 273 291 292 293 311
b 108 255 273 274 275 293
b 109 275 293 295 311 313 315 329 333
b 110 275 293 294 295 313
b 111 293 311 313 329 331 333
b 112 311 329 330 331
b 113 313 331 332 333
b 114 293 311 312 313 331
b 115 295 313 314 315 333
b 116 5 13 25 33 45 51 65 69 83 85 87 102 105 122 123
b 117 65 83 85 102 103 105 122 123
b 118 85 103 104 105 123
b 119 65 83 84 85 103
b 120 5 9 13 25 29 33 45 49 51 65 69 85 87 105
b 121 5 9 25 29 45 47 49 65 69 85 87 105
b 122 29 47 49 65 67 69 85 87 105
b 123 49 67 68 69 87
b 124 29 47 48 49 67
b 125 47 65 66 67 85
b 126 67 85 86 87 105
b 127 5 9 25 27 29 45 47 65
b 128 9 27 28 29 47
b 129 5 7 9 25 27 45
b 130 7 8 9 27
b 131 5 6 7 25
b 132 7 25 26 27 45
b 133 27 45 46 47 65
b 134 9 13 29 31 33 49 51 69
b 135 13 31 32 33 51
b 136 9 11 13 29 31 49
b 137 9 10 11 29
b 138 11 29 30 31 49
b 139 11 12 13 31
b 140 31 49 50 51 69
b 141 45 63 64 65 83
b 142 62 63 80 83 98 100 102 118 120 138
b 143 100 118 119 120 138
b 144 80 98 99 100 118
b 145 62 63 80 82 83 100 102 120
b 146 62 80 81 82 100
b 147 82 100 101 102 120
b 148 25 43 44 45 63
b 149 78 96 97 98 116
b 150 60 78 79 80 98
b 151 42 60 61 62 80
b 152 5 23 24 25 43
b 153 58 77 78 96
b 154 40 58 59 60 78
b 155 22 40 41 42 60
b 156 3 22 39 40 58
b 157 3 21 22 39 40
b 158 69 87 89 105 108 123 125 128 143 146 163 164
b 159 13 33 51 69 87 89 105 108 123 128 143 146 163 164 184 203 221 239 257 275 295 315 333
b 160 13 33 51 69 89 108 128 146 148 152 164 168 170 184 188 203 221 239 257 275 295 315 333
b 161 13 33 51 69 89 108 128 146 164 168 170 184 188 203 221 239 257 275 295 315 333
b 162 128 146 148 152 164 168 170 184 188 203 206 221 223 224 239 257 275 295 315 333
b 163 152 170 188 203 206 221 223 224 239 243 257 261 275 279 295 297 315 333
b 164 203 221 223 239 243 257 259 261 275 279 295 297 315
b 165 239 257 259 275 277 279 295 297 315
b 166 277 295 296 297 315
b 167 239 257 258 259 277
b 168 257 275 276 277 295
b 169 259 277 278 279 297
b 170 203 221 223 239 241 243 259 261 279
b 171 221 239 240 241 259
b 172 223 241 242 243 261
b 173 241 259 260 261 279
b 174 203 221 222 223 241
b 175 152 170 188 206 224 228 243 246 261 263 264 279 297 315 333
b 176 152 170 188 206 224 226 228 243 246 263 264
b 177 206 224 226 243 244 246 263 264
b 178 226 244 245 246 264
b 179 206 224 225 226 244
b 180 152 170 188 206 208 226 228 246
b 181 188 206 207 208 226
b 182 208 226 227 228 246
b 183 152 170 188 190 208 228
b 184 190 208 209 228
b 185 170 188 189 190 208
b 186 152 170 171 190
b 187 228 243 246 261 263 264 279 297 315 317 333 337
b 188 228 243 246 261 263 264 279 297 299 317 337
b 189 279 297 298 299 317
b 190 228 243 246 261 263 264 279 281 299 317 337
b 191 243 261 262 263 281
b 192 228 246 263 264 281 299 317 319 337
b 193 228 246 263 264 281 299 301 319 337
b 194 281 299 300 301 319
b 195 228 246 263 264 281 283 301 319 337
b 196 228 246 264 283 301 303 304 319 337
b 197 228 246 264 283 284 303 304
b 198 228 246 264 266 284 304
b 199 266 284 285 304
b 200 246 264 265 266 284
b 201 228 246 247 266
b 202 283 301 303 304 319 337 339
b 203 319 337 338 339
b 204 283 301 303 304 319 321 339
b 205 303 304 321 339 340
b 206 303 304 321 322 340
b 207 283 301 302 303 321
b 208 301 319 320 321 339
b 209 263 281 282 283 301
b 210 299 317 318 319 337
b 211 261 279 280 281 299
b 212 297 315 317 333 335 337
b 213 297 315 316 317 335
b 214 315 333 334 335
b 215 317 335 336 337
b 216 128 146 148 164 166 168 184 188 203 206 223 224
b 217 148 166 168 184 186 188 203 206 223 224
b 218 166 184 186 203 204 206 223 224
b 219 166 184 185 186 204
b 220 186 204 205 206 224
b 221 168 186 187 188 206
b 222 148 166 167 168 186
b 223 128 146 147 148 166
b 224 146 164 165 166 184
b 225 13 33 51 69 76 89 94 108 112 128 130 148 152 168 170 188
b 226 76 94 112 130 148 150 152 168 170 188
b 227 130 148 149 150 168
b 228 150 168 169 170 188
b 229 76 94 112 130 132 150 152 170
b 230 132 150 151 152 170
b 231 112 130 131 132 150
b 232 76 94 112 114 132 152
b 233 76 94 95 114
b 234 114 132 133 152
b 235 94 112 113 114 132
b 236 13 33 51 69 71 76 89 94 108 112 128 130 148
b 237 13 33 51 71 72 76 89 92 94 108 112 128 130 148
b 238 71 72 89 92 108 110 112 128 130 148
b 239 71 72 89 90 92 108 110 128
b 240 72 90 91 92 110
b 241 90 108 109 110 128
b 242 110 128 129 130 148
b 243 92 110 111 112 130
b 244 13 33 51 53 71 72 76 92 94 112
b 245 33 51 52 53 71
b 246 13 33 53 72 74 76 92 94 112
b 247 13 33 53 54 72 74 76 92 94
b 248 54 72 73 74 92
b 249 13 17 33 36 53 54 74 76 94
b 250 17 36 54 56 74 76 94
b 251 56 74 75 76 94
b 252 17 36 56 57 76
b 253 17 36 37 56 57
b 254 36 54 55 56 74
b 255 13 17 33 35 36 53 54
b 256 13 15 17 33 35 53
b 257 13 14 15 33
b 258 15 33 34 35 53
b 259 15 16 17 35
b 260 74 92 93 94 112
b 261 51 69 70 71 89
b 262 105 123 124 125 143
b 263 69 87 89 105 108 125 126 128 143 146 163 164
b 264 125 126 143 144 146 163 164
b 265 126 144 145 146 164
b 266 69 87 89 105 107 108 125 126
b 267 69 87 88 89 107
b 268 87 105 106 107 125
b 269 108 126 127 128 146
b 270 323 341 342
b 271 305 324 325
b 272 18 19 38
1 2
2 4
3 272
3 5
4 157
5 253
6 271
6 8
7 270
7 9
8 94
9 206
10 11
11 156
11 12
12 155
12 13
13 154
13 14
14 153
14 15
15 152
15 16
16 151
16 17
17 150
17 18
18 149
18 19
19 148
19 20
20 142
20 21
21 141
21 22
22 116
22 23
23 25
23 24
25 39
25 26
26 159
26 27
27 33
27 28
28 31
28 32
28 29
29 30
33 37
33 38
33 34
34 36
34 35
39 40
39 64
40 41
41 42
41 48
42 46
42 47
42 43
43 45
43 44
48 49
48 59
49 51
49 50
49 52
52 53
52 58
52 54
54 55
54 56
54 57
59 61
59 60
59 63
59 62
64 65
64 73
65 66
65 67
65 68
68 69
68 70
68 72
68 71
73 106
73 74
74 81
74 75
75 76
75 77
75 78
78 80
78 79
81 102
81 82
82 101
82 83
83 100
83 84
84 99
84 85
85 98
85 86
86 97
86 87
87 96
87 88
88 89
88 90
90 95
90 91
91 92
91 93
93 94
102 105
102 104
102 103
106 107
106 108
106 109
109 115
109 110
109 111
111 112
111 113
111 114
116 117
116 120
117 119
117 118
120 134
120 121
121 127
121 122
122 124
122 125
122 123
122 126
127 128
127 133
127 129
129 131
129 130
129 132
134 135
134 140
134 136
136 137
136 139
136 138
142 144
142 143
142 145
145 146
145 147
156 157
158 262
158 263
158 159
159 161
160 162
160 225
160 161
162 216
162 163
163 164
163 175
164 165
164 170
165 166
165 168
165 169
165 167
170 173
170 171
170 172
170 174
175 176
175 187
176 180
176 177
177 178
177 179
180 182
180 181
180 183
183 186
183 184
183 185
187 212
187 188
188 189
188 190
190 211
190 191
190 192
192 210
192 193
193 194
193 195
195 209
195 196
196 197
196 202
197 198
198 201
198 199
198 200
202 203
202 204
204 205
204 208
204 207
205 206
212 214
212 215
212 213
216 223
216 224
216 217
217 221
217 222
217 218
218 220
218 219
225 226
225 236
226 228
226 227
226 229
229 230
229 231
229 232
232 233
232 234
232 235
236 261
236 237
237 244
237 238
238 243
238 242
238 239
239 240
239 241
244 245
244 246
246 260
246 247
247 248
247 249
249 255
249 250
250 252
250 251
250 254
252 253
255 256
256 257
256 259
256 258
263 269
263 264
263 266
264 265
266 267
266 268
